50
11248

308 922
509 999
750 248
450 288
177 95
131 814
670 121
203 501
116 544
743 906
81 575
905 301
838 952
568 342
366 186
277 67
367 879
592 254
543 5
283 116
970 576
542 318
469 680
775 438
359 911
772 955
770 197
442 31
354 470
597 356
462 451
284 616
752 272
504 275
143 912
708 966
888 99
909 75
116 586
18 429
16 282
678 197
886 616
996 711
427 856
499 730
241 390
626 202
531 373
135 218
